solution/p_5_7.txt_600.row.log
CPXPARAM_TimeLimit                               600
CPXPARAM_WorkMem                                 4096
CPXPARAM_Threads                                 1
Found incumbent of value 0,000000 after 0,00 sec. (0,01 ticks)
Tried aggregator 1 time.
MIP Presolve eliminated 16 rows and 42 columns.
MIP Presolve modified 3 coefficients.
Reduced MIP has 24 rows, 58 columns, and 100 nonzeros.
Reduced MIP has 58 binaries, 0 generals, 0 SOSs, and 0 indicators.
Presolve time = 0,00 sec. (0,18 ticks)
Probing time = 0,00 sec. (0,01 ticks)
Tried aggregator 1 time.
MIP Presolve eliminated 19 rows and 45 columns.
MIP Presolve added 1 rows and 1 columns.
Reduced MIP has 6 rows, 14 columns, and 26 nonzeros.
Reduced MIP has 13 binaries, 1 generals, 0 SOSs, and 0 indicators.
Presolve time = 0,00 sec. (0,04 ticks)
Probing time = 0,00 sec. (0,01 ticks)
Tried aggregator 1 time.
MIP Presolve eliminated 1 rows and 1 columns.
MIP Presolve added 1 rows and 1 columns.
Reduced MIP has 6 rows, 14 columns, and 26 nonzeros.
Reduced MIP has 13 binaries, 1 generals, 0 SOSs, and 0 indicators.
Presolve time = 0,00 sec. (0,02 ticks)
Probing time = 0,00 sec. (0,01 ticks)
Clique table members: 8.
MIP emphasis: balance optimality and feasibility.
MIP search method: dynamic search.
Parallel mode: none, using 1 thread.
Root relaxation solution time = 0,00 sec. (0,01 ticks)

        Nodes                                         Cuts/
   Node  Left     Objective  IInf  Best Integer    Best Bound    ItCnt     Gap

*     0+    0                          244,0000      371,0000            52,05%
      0     0      295,5455     1      244,0000      295,5455        3   21,13%
*     0+    0                          289,0000      295,5455             2,26%
      0     0      292,0000     2      289,0000       Cuts: 2        5    1,04%
*     0+    0                          291,0000      292,0000             0,34%
      0     0        cutoff            291,0000                      7     --- 
Elapsed time = 0,01 sec. (4,63 ticks, tree = 0,01 MB, solutions = 4)

GUB cover cuts applied:  1
Gomory fractional cuts applied:  1

Root node processing (before b&c):
  Real time             =    0,01 sec. (4,63 ticks)
Sequential b&c:
  Real time             =    0,00 sec. (0,00 ticks)
                          ------------
Total (root+branch&cut) =    0,01 sec. (4,63 ticks)
